
n_res = 6;
rcap = [71, 72, 74, 77, 703, 707];
rtype = [1, 1, 1, 1, 2, 2];
n_tasks = 50;
modes =  [{1, 2, 3}, {4, 5, 6}, {7, 8, 9}, {10, 11, 12}, {13, 14, 15}, {16, 17, 18}, {19, 20, 21}, {22, 23, 24}, {25, 26, 27}, {28, 29, 30}, {31, 32, 33}, {34, 35, 36}, {37, 38, 39}, {40, 41, 42}, {43, 44, 45}, {46, 47, 48}, {49, 50, 51}, {52, 53, 54}, {55, 56, 57}, {58, 59, 60}, {61, 62, 63}, {64, 65, 66}, {67, 68, 69}, {70, 71, 72}, {73, 74, 75}, {76, 77, 78}, {79, 80, 81}, {82, 83, 84}, {85, 86, 87}, {88, 89, 90}, {91, 92, 93}, {94, 95, 96}, {97, 98, 99}, {100, 101, 102}, {103, 104, 105}, {106, 107, 108}, {109, 110, 111}, {112, 113, 114}, {115, 116, 117}, {118, 119, 120}, {121, 122, 123}, {124, 125, 126}, {127, 128, 129}, {130, 131, 132}, {133, 134, 135}, {136, 137, 138}, {139, 140, 141}, {142, 143, 144}, {145, 146, 147}, {148, 149, 150}];
succ =  [{31, 29, 27, 24, 22, 20, 19, 16, 12}, {31, 27, 24, 19, 11, 7}, {29, 28, 27, 22, 19, 18, 17, 12}, {34, 29, 22, 20, 10}, {18, 8}, {29, 24, 22, 20, 12}, {34, 33, 29, 28, 25, 22, 21, 18}, {29, 28, 17, 12}, {34, 31, 30, 28, 25, 21, 17}, {30, 27, 25, 24, 21}, {37, 34, 30, 28, 21}, {34, 30, 25, 21}, {50, 40, 37, 34, 31, 27, 26, 23}, {41, 30, 28, 21}, {50, 41, 37, 33, 31, 28, 23}, {39, 37, 34, 33, 32, 28, 26}, {50, 40, 37, 33, 26, 23}, {50, 41, 40, 38, 26, 23}, {50, 40, 37, 34, 23}, {50, 40, 35, 33, 26, 25}, {50, 40, 38, 26, 23}, {44, 37, 35, 30, 26}, {49, 48, 47, 46, 39, 36, 35, 32}, {49, 48, 47, 46, 35, 32}, {48, 46, 45, 43, 42, 41, 39}, {49, 47, 46, 45, 36}, {49, 48, 47, 46, 35}, {46, 42, 40, 35}, {50, 48, 47, 42, 41}, {50, 46, 45, 36}, {48, 45, 44, 43, 42}, {45, 44, 43, 42}, {47, 44, 42}, {46, 41}, {45, 43}, {43, 42}, {48, 46}, {47, 42}, {44}, {47}, {44}, {}, {}, {}, {}, {}, {}, {}, {}, {}];
n_opt = 150;
dur = [20, 28, 30, 6, 25, 30, 9, 28, 30, 2, 5, 19, 1, 9, 23, 12, 13, 27, 8, 11, 15, 8, 18, 29, 19, 20, 22, 7, 8, 23, 7, 8, 18, 8, 16, 17, 4, 6, 28, 5, 12, 17, 18, 23, 30, 18, 21, 27, 8, 24, 26, 3, 4, 28, 3, 4, 19, 15, 24, 25, 6, 13, 16, 17, 25, 26, 16, 17, 21, 3, 9, 16, 8, 20, 21, 2, 13, 23, 17, 23, 24, 4, 18, 27, 23, 24, 30, 10, 19, 23, 13, 15, 23, 2, 6, 29, 4, 15, 30, 4, 11, 15, 11, 26, 30, 18, 26, 30, 10, 20, 28, 6, 26, 30, 1, 16, 19, 16, 17, 19, 3, 21, 22, 2, 13, 23, 2, 26, 27, 23, 27, 29, 3, 13, 28, 4, 5, 12, 1, 16, 23, 5, 6, 23, 11, 20, 22, 2, 5, 29];
rreq = [|3, 3, 3, 23, 15, 11, 26, 23, 21, 6, 6, 5, 12, 11, 5, 7, 7, 7, 25, 25, 22, 28, 21, 5, 16, 9, 8, 17, 11, 8, 25, 22, 21, 24, 20, 18, 16, 15, 8, 13, 9, 6, 14, 14, 10, 10, 9, 6, 27, 25, 24, 15, 10, 6, 19, 18, 17, 20, 17, 16, 4, 2, 1, 24, 23, 23, 3, 2, 2, 16, 13, 11, 23, 20, 17, 17, 14, 14, 19, 14, 13, 17, 14, 12, 12, 12, 11, 17, 17, 17, 26, 16, 4, 8, 7, 7, 24, 12, 11, 27, 17, 15, 23, 23, 22, 12, 8, 4, 5, 4, 1, 11, 11, 10, 9, 9, 9, 11, 11, 7, 29, 28, 26, 8, 4, 2, 20, 17, 13, 21, 15, 13, 22, 12, 10, 16, 10, 2, 26, 26, 25, 18, 17, 16, 22, 21, 18, 17, 15, 10
 |21, 19, 10, 8, 8, 7, 11, 7, 7, 13, 10, 2, 27, 27, 26, 16, 15, 13, 25, 21, 21, 28, 28, 28, 27, 22, 12, 23, 22, 21, 5, 5, 5, 7, 7, 4, 20, 10, 7, 25, 16, 14, 23, 15, 14, 22, 15, 12, 26, 24, 20, 23, 19, 16, 21, 19, 19, 17, 11, 7, 27, 15, 10, 23, 22, 22, 24, 20, 20, 3, 2, 2, 20, 18, 8, 5, 5, 5, 16, 13, 9, 26, 23, 22, 25, 13, 6, 24, 15, 11, 13, 9, 6, 25, 16, 11, 22, 16, 16, 19, 15, 8, 16, 12, 11, 28, 22, 19, 16, 13, 9, 23, 15, 11, 23, 13, 11, 29, 20, 3, 15, 13, 12, 26, 26, 26, 24, 24, 24, 19, 19, 19, 3, 2, 2, 7, 7, 7, 11, 8, 2, 28, 17, 6, 13, 10, 9, 21, 10, 6
 |19, 17, 6, 27, 23, 17, 18, 14, 11, 22, 15, 13, 7, 6, 5, 8, 5, 1, 15, 12, 11, 29, 18, 9, 14, 11, 11, 15, 12, 11, 27, 23, 13, 16, 14, 14, 6, 6, 6, 23, 17, 9, 11, 10, 9, 27, 20, 14, 15, 13, 13, 24, 24, 24, 29, 28, 27, 30, 26, 25, 10, 7, 3, 18, 13, 9, 30, 25, 21, 7, 4, 4, 5, 4, 2, 21, 20, 18, 28, 27, 27, 15, 13, 9, 22, 19, 17, 24, 14, 10, 16, 9, 6, 28, 21, 17, 23, 22, 22, 2, 2, 2, 22, 14, 4, 16, 13, 8, 23, 21, 16, 19, 10, 7, 23, 18, 13, 22, 18, 5, 16, 16, 9, 9, 7, 4, 21, 13, 12, 21, 16, 7, 4, 2, 2, 29, 16, 5, 21, 9, 6, 17, 16, 15, 26, 24, 24, 21, 19, 13
 |4, 4, 4, 17, 11, 5, 6, 5, 5, 13, 7, 4, 15, 11, 9, 25, 20, 12, 3, 3, 2, 26, 11, 3, 24, 23, 22, 24, 18, 8, 5, 4, 3, 26, 15, 3, 16, 15, 10, 21, 17, 10, 25, 25, 24, 24, 17, 10, 30, 29, 29, 12, 8, 6, 19, 19, 12, 26, 16, 10, 13, 12, 11, 17, 13, 3, 15, 15, 12, 24, 23, 19, 29, 27, 21, 17, 16, 15, 21, 13, 9, 22, 11, 7, 20, 19, 16, 16, 7, 6, 14, 11, 9, 25, 24, 24, 24, 19, 17, 5, 4, 1, 15, 13, 13, 8, 7, 6, 15, 8, 6, 11, 10, 6, 20, 19, 19, 29, 27, 27, 20, 18, 17, 20, 15, 10, 9, 8, 8, 1, 1, 1, 12, 8, 4, 16, 16, 16, 23, 23, 18, 20, 17, 6, 20, 18, 16, 9, 8, 5
 |22, 9, 5, 10, 8, 8, 17, 9, 2, 13, 11, 11, 9, 9, 7, 15, 14, 11, 25, 22, 19, 15, 9, 1, 21, 21, 20, 19, 18, 18, 16, 15, 15, 8, 4, 4, 25, 20, 16, 20, 18, 12, 25, 24, 21, 7, 5, 4, 23, 13, 10, 22, 20, 18, 18, 11, 8, 19, 12, 9, 16, 14, 7, 26, 20, 10, 21, 21, 21, 15, 14, 11, 26, 26, 24, 24, 24, 24, 14, 9, 1, 25, 21, 17, 15, 14, 13, 25, 16, 2, 3, 2, 2, 16, 15, 14, 25, 23, 16, 25, 25, 25, 23, 21, 19, 15, 9, 7, 26, 26, 26, 18, 14, 10, 24, 21, 16, 13, 12, 12, 25, 24, 18, 27, 15, 2, 8, 7, 6, 10, 8, 1, 26, 26, 23, 20, 12, 7, 30, 29, 28, 21, 21, 21, 25, 18, 7, 19, 14, 11
 |24, 20, 6, 21, 18, 13, 18, 18, 3, 26, 12, 8, 8, 5, 4, 28, 26, 25, 15, 12, 11, 22, 19, 9, 11, 9, 6, 22, 18, 7, 23, 21, 15, 24, 18, 13, 10, 8, 5, 14, 11, 8, 17, 15, 14, 14, 13, 13, 26, 18, 16, 23, 18, 11, 26, 22, 20, 22, 21, 21, 20, 17, 17, 25, 22, 22, 28, 28, 27, 24, 20, 12, 25, 24, 24, 21, 15, 10, 16, 10, 3, 22, 20, 8, 28, 18, 15, 15, 12, 8, 24, 16, 7, 12, 12, 11, 21, 18, 13, 6, 4, 3, 12, 12, 10, 28, 24, 20, 20, 18, 8, 19, 16, 12, 24, 10, 6, 26, 22, 15, 14, 12, 9, 11, 8, 7, 23, 16, 14, 18, 15, 8, 12, 10, 9, 11, 11, 9, 23, 22, 21, 30, 30, 30, 28, 23, 17, 15, 10, 9|];